\* Problem: Unknown *\

Maximize
 obj: + xp_0_0 + xp_0_1 + xp_1_0 + xp_2_0 + xp_2_1 + xp_3_0 + xp_3_1
 + xp_3_2 + xp_4_0 + xp_5_0 + xp_6_0 + xp_6_1 + xp_7_0 + xp_8_0 + xp_9_0
 + xp_10_0 + xp_10_1 + xp_10_2 + xp_11_0 + xp_12_0 + xp_12_1 + xp_13_0
 + xp_14_0 + xp_15_0 + xp_15_1 + xp_16_0 + xp_17_0 + xp_17_1 + xp_18_0
 + xp_18_1 + xp_19_0 + xp_20_0 + xp_21_0 + xp_21_1 + xp_21_2 + xp_21_3
 + xp_22_0 + xp_22_1 + xp_22_2 + xp_23_0 + xp_24_0 + xp_24_1 + xp_24_2
 + xp_25_0 + xp_26_0 + xp_27_0 + xp_28_0 + xp_28_1 + xp_29_0 + xp_30_0
 + xp_31_0 + xp_31_1 + xp_32_0 + xp_33_0 + xp_34_0 + xp_35_0 + xp_36_0
 + xp_37_0 + xp_38_0 + xp_38_1 + xp_39_0 + xp_40_0 + xp_40_1 + xp_41_0
 + xp_42_0 + xp_42_1 + xp_43_0 + xp_44_0 + xp_44_1 + xp_45_0 + xp_46_0
 + xp_47_0 + xp_48_0 + xp_48_1 + xp_48_2 + xp_49_0 + xp_50_0 + xp_51_0
 + xp_52_0 + xp_52_1 + xp_53_0 + xp_54_0 + xp_55_0 + xp_56_0 + xp_57_0
 + xp_58_0 + xp_58_1 + xp_59_0 + xp_60_0 + xp_60_1 + xp_60_2 + xp_61_0
 + xp_62_0 + xp_63_0 + xp_63_1 + xp_64_0 + xp_65_0

Subject To
 r_1: + xp_60_2 + xp_53_0 + xp_51_0 + xp_42_1 + xp_40_0 + xp_35_0
 + xp_33_0 <= 152.393669634026
 r_2: + xp_58_1 + xp_24_2 + xp_15_1 <= 153.637538779731
 r_3: + xp_56_0 + xp_21_0 + xp_12_0 <= 153.637538779731
 r_4: + xp_65_0 + xp_50_0 + xp_45_0 + xp_24_1 + xp_24_0 + xp_21_3
 + xp_15_0 + xp_10_1 + xp_10_0 + xp_5_0 + xp_2_1 <= 140.385468663339
 r_5: + xp_52_1 + xp_38_1 + xp_31_1 + xp_17_0 + xp_14_0
 <= 153.637538779731
 r_6: + xp_22_2 + xp_22_1 + xp_22_0 + xp_21_2 + xp_13_0 + xp_12_1
 + xp_10_2 + xp_3_1 + xp_3_0 + xp_2_0 <= 148.340353833193
 r_7: + xp_60_1 + xp_48_2 + xp_48_1 + xp_46_0 + xp_42_0 + xp_40_1
 + xp_0_0 <= 151.25355450237
 r_8: 0 xp_0_0 <= 149.23665791776
 r_9: + xp_64_0 + xp_63_1 + xp_25_0 + xp_24_2 + xp_21_0 + xp_6_0
 <= 152.393669634026
 r_10: + xp_63_0 <= 149.23665791776
 r_11: + xp_60_0 + xp_38_0 + xp_31_0 <= 153.637538779731
 r_12: + xp_62_0 + xp_61_0 + xp_60_2 + xp_60_1 + xp_21_1 + xp_3_2
 <= 148.340353833193
 r_13: + xp_64_0 + xp_59_0 + xp_58_1 + xp_56_0 + xp_29_0 + xp_24_2
 + xp_21_0 + xp_20_0 + xp_15_1 + xp_12_0 <= 152.393669634026
 r_14: + xp_60_2 + xp_57_0 + xp_53_0 + xp_48_1 + xp_42_1 + xp_35_0
 + xp_18_0 <= 152.393669634026
 r_15: + xp_63_1 + xp_58_0 <= 151.25355450237
 r_16: + xp_65_0 + xp_55_0 + xp_53_0 + xp_51_0 + xp_50_0 + xp_44_1
 + xp_10_1 + xp_10_0 <= 153.637538779731
 r_17: + xp_58_1 + xp_54_0 + xp_52_1 + xp_36_0 + xp_31_1
 <= 140.385468663339
 r_18: + xp_52_0 + xp_21_3 + xp_2_1 <= 153.637538779731
 r_19: + xp_60_0 + xp_48_0 <= 149.23665791776
 r_20: + xp_50_0 + xp_49_0 + xp_48_2 + xp_48_1 + xp_46_0 + xp_45_0
 + xp_22_1 + xp_10_2 + xp_10_1 + xp_3_1 <= 153.637538779731
 r_21: + xp_52_1 + xp_47_0 + xp_26_0 + xp_21_1 + xp_17_1 + xp_17_0
 + xp_7_0 + xp_3_2 <= 153.637538779731
 r_22: + xp_61_0 + xp_60_1 + xp_43_0 + xp_42_0 + xp_40_1 + xp_38_1
 <= 148.340353833193
 r_23: + xp_56_0 + xp_52_0 + xp_41_0 + xp_38_0 + xp_34_0 + xp_31_0
 <= 148.340353833193
 r_24: + xp_62_0 + xp_60_2 + xp_44_1 + xp_44_0 + xp_42_1 + xp_40_0
 + xp_39_0 + xp_21_2 + xp_21_1 + xp_12_1 + xp_10_2 + xp_2_0
 <= 153.637538779731
 r_25: + xp_62_0 + xp_60_2 + xp_44_0 + xp_42_1 + xp_40_0 + xp_37_0
 + xp_35_0 + xp_33_0 + xp_10_2 <= 153.637538779731
 r_26: + xp_44_1 + xp_39_0 + xp_36_0 + xp_32_0 + xp_31_1
 <= 153.637538779731
 r_27: + xp_56_0 + xp_52_0 + xp_34_0 + xp_31_0 + xp_30_0
 <= 153.637538779731
 r_28: + xp_60_1 + xp_60_0 + xp_48_2 + xp_48_0 + xp_42_0 + xp_27_0
 + xp_25_0 + xp_24_2 + xp_21_0 + xp_18_1 + xp_8_0 + xp_6_0
 <= 149.23665791776
 r_29: + xp_29_0 + xp_28_0 + xp_24_1 + xp_22_0 + xp_6_1 + xp_0_1
 <= 151.25355450237
 r_30: + xp_63_0 + xp_28_1 + xp_26_0 + xp_24_0 + xp_23_0 + xp_22_2
 + xp_22_1 + xp_21_3 + xp_21_2 + xp_21_1 + xp_17_1 <= 149.23665791776
 r_31: + xp_63_1 + xp_58_0 + xp_28_0 + xp_24_1 + xp_22_0 + xp_19_0
 + xp_17_0 + xp_15_0 + xp_14_0 + xp_13_0 + xp_12_1 <= 151.25355450237
 r_32: + xp_48_1 + xp_46_0 + xp_40_1 + xp_29_0 + xp_20_0 + xp_18_0
 + xp_16_0 + xp_15_1 + xp_12_0 + xp_6_1 <= 151.25355450237
 r_33: + xp_60_1 + xp_48_2 + xp_42_0 + xp_18_1 + xp_17_1 + xp_11_0
 <= 151.25355450237
 r_34: + xp_26_0 + xp_23_0 + xp_22_1 + xp_21_1 + xp_17_1 + xp_10_2
 + xp_10_1 + xp_7_0 + xp_4_0 + xp_3_2 + xp_3_1 <= 149.23665791776
 r_35: + xp_60_0 + xp_48_0 + xp_8_0 + xp_6_1 + xp_6_0 + xp_1_0 + xp_0_1
 <= 149.23665791776
 r_36: + xp_63_0 + xp_28_1 + xp_24_0 + xp_22_2 + xp_21_3 + xp_21_2
 + xp_10_0 + xp_9_0 + xp_5_0 + xp_3_0 + xp_2_1 + xp_2_0 + xp_0_0
 <= 149.23665791776

Bounds
 0 <= xp_0_0 <= 11.188228761799
 0 <= xp_0_1 <= 16.7823431426985
 0 <= xp_1_0 <= 22.6633351841569
 0 <= xp_2_0 <= 14.9750138811771
 0 <= xp_2_1 <= 9.98334258745141
 0 <= xp_3_0 <= 5.79492874329076
 0 <= xp_3_1 <= 2.89746437164538
 0 <= xp_3_2 <= 5.79492874329076
 0 <= xp_4_0 <= 28.4008883953359
 0 <= xp_5_0 <= 22.6633351841569
 0 <= xp_6_0 <= 10.4423468443457
 0 <= xp_6_1 <= 15.6635202665186
 0 <= xp_7_0 <= 22.089579863039
 0 <= xp_8_0 <= 25.101795298908
 0 <= xp_9_0 <= 17.4995372940959
 0 <= xp_10_0 <= 6.54081066074403
 0 <= xp_10_1 <= 6.54081066074403
 0 <= xp_10_2 <= 3.27040533037201
 0 <= xp_11_0 <= 25.6755506200259
 0 <= xp_12_0 <= 10.0694058856191
 0 <= xp_12_1 <= 6.7129372570794
 0 <= xp_13_0 <= 15.0610771793448
 0 <= xp_14_0 <= 22.8067740144364
 0 <= xp_15_0 <= 17.0405330372016
 0 <= xp_15_1 <= 11.3603553581344
 0 <= xp_16_0 <= 27.1099389228206
 0 <= xp_17_0 <= 9.52433833055709
 0 <= xp_17_1 <= 14.2865074958356
 0 <= xp_18_0 <= 8.14732555987414
 0 <= xp_18_1 <= 12.2209883398112
 0 <= xp_19_0 <= 19.651119748288
 0 <= xp_20_0 <= 23.3805293355543
 0 <= xp_21_0 <= 3.75809735332223
 0 <= xp_21_1 <= 3.75809735332223
 0 <= xp_21_2 <= 7.51619470664445
 0 <= xp_21_3 <= 3.75809735332223
 0 <= xp_22_0 <= 13.6840644086619
 0 <= xp_22_1 <= 4.56135480288728
 0 <= xp_22_2 <= 4.56135480288728
 0 <= xp_23_0 <= 23.5239681658338
 0 <= xp_24_0 <= 7.34406811030909
 0 <= xp_24_1 <= 3.67203405515454
 0 <= xp_24_2 <= 7.34406811030909
 0 <= xp_25_0 <= 27.9705719044975
 0 <= xp_26_0 <= 18.6470479363317
 0 <= xp_27_0 <= 15.0610771793448
 0 <= xp_28_0 <= 14.8889505830094
 0 <= xp_28_1 <= 9.92596705533962
 0 <= xp_29_0 <= 22.5198963538775
 0 <= xp_30_0 <= 27.827133074218
 0 <= xp_31_0 <= 3.58597075698686
 0 <= xp_31_1 <= 14.3438830279474
 0 <= xp_32_0 <= 15.7782713307422
 0 <= xp_33_0 <= 18.9339255968906
 0 <= xp_34_0 <= 22.8067740144364
 0 <= xp_35_0 <= 15.6348325004627
 0 <= xp_36_0 <= 18.0732926152138
 0 <= xp_37_0 <= 14.3438830279474
 0 <= xp_38_0 <= 10.6718489727929
 0 <= xp_38_1 <= 7.11456598186193
 0 <= xp_39_0 <= 15.2045160096243
 0 <= xp_40_0 <= 15.6061447344068
 0 <= xp_40_1 <= 3.9015361836017
 0 <= xp_41_0 <= 20.6551915602443
 0 <= xp_42_0 <= 14.458634092171
 0 <= xp_42_1 <= 9.63908939478067
 0 <= xp_43_0 <= 17.0692208032574
 0 <= xp_44_0 <= 14.5733851563946
 0 <= xp_44_1 <= 3.64334628909865
 0 <= xp_45_0 <= 15.0610771793448
 0 <= xp_46_0 <= 21.0855080510827
 0 <= xp_47_0 <= 20.0814362391264
 0 <= xp_48_0 <= 17.0405330372016
 0 <= xp_48_1 <= 5.68017767906718
 0 <= xp_48_2 <= 5.68017767906718
 0 <= xp_49_0 <= 14.9176383490653
 0 <= xp_50_0 <= 16.2085878215806
 0 <= xp_51_0 <= 24.2411623172312
 0 <= xp_52_0 <= 21.4584490098094
 0 <= xp_52_1 <= 5.36461225245234
 0 <= xp_53_0 <= 28.114010734777
 0 <= xp_54_0 <= 27.6836942439385
 0 <= xp_55_0 <= 21.6592633722006
 0 <= xp_56_0 <= 15.2045160096243
 0 <= xp_57_0 <= 17.9298537849343
 0 <= xp_58_0 <= 22.2617064593744
 0 <= xp_58_1 <= 5.5654266148436
 0 <= xp_59_0 <= 27.827133074218
 0 <= xp_60_0 <= 7.05719044975014
 0 <= xp_60_1 <= 7.05719044975014
 0 <= xp_60_2 <= 3.52859522487507
 0 <= xp_61_0 <= 25.9624282805849
 0 <= xp_62_0 <= 27.6836942439385
 0 <= xp_63_0 <= 20.7699426244679
 0 <= xp_63_1 <= 5.19248565611697
 0 <= xp_64_0 <= 27.9705719044975
 0 <= xp_65_0 <= 20.2248750694059

End
